78
2 55 76 
1 43 
1 27 
2 81 94 
2 112 100 
2 79 97 
2 34 90 
1 31 
2 118 70 
1 101 
2 46 109 
2 40 91 
2 52 64 
1 85 
2 49 13 
1 73 
2 106 67 
1 19 
2 61 7 
2 62 75 
2 1 115 
3 22 3 5 
3 103 26 84 
1 25 
1 16 
2 28 20 
3 10 98 116 
1 37 
3 39 24 113 
1 12 
1 18 
1 63 
1 51 
1 69 
1 117 
1 58 
1 30 
3 9 99 72 
1 15 
3 108 29 87 
1 105 
3 21 96 60 
2 104 8 
1 102 
1 38 
1 11 
2 17 42 
1 89 
1 54 
1 48 
1 4 
1 120 
1 93 
1 77 
1 111 
1 53 
1 36 
3 110 47 41 
1 33 
1 14 
2 2 23 
1 82 
1 35 
1 80 
3 32 6 119 
1 114 
1 66 
3 45 83 71 
2 78 74 
3 44 95 107 
1 59 
1 57 
1 65 
1 86 
1 56 
1 68 
1 50 
2 88 92 
